NAME          
ROWS
 N  OBJ
 L  c1
 L  c2
COLUMNS
    MARKER    'MARKER'                 'INTORG'
    x[1]      c1        891
    x[1]      c2        963
    x[1]      OBJ       -295
    x[2]      c1        794
    x[2]      c2        650
    x[2]      OBJ       -591
    x[3]      c1        138
    x[3]      c2        502
    x[3]      OBJ       -686
    x[4]      c1        683
    x[4]      c2        927
    x[4]      OBJ       -750
    x[5]      c1        738
    x[5]      c2        150
    x[5]      OBJ       -559
    x[6]      c1        235
    x[6]      c2        199
    x[6]      OBJ       -994
    x[7]      c1        932
    x[7]      c2        704
    x[7]      OBJ       -401
    x[8]      c1        488
    x[8]      c2        637
    x[8]      OBJ       -529
    x[9]      c1        320
    x[9]      c2        446
    x[9]      OBJ       -323
    x[10]     c1        928
    x[10]     c2        475
    x[10]     OBJ       -235
RHS
    rhs       c1        3074
    rhs       c2        2826
RANGES
BOUNDS
 LO bounds    x[1]      0
 PL bounds    x[1]
 LO bounds    x[2]      0
 PL bounds    x[2]
 LO bounds    x[3]      0
 PL bounds    x[3]
 LO bounds    x[4]      0
 PL bounds    x[4]
 LO bounds    x[5]      0
 PL bounds    x[5]
 LO bounds    x[6]      0
 PL bounds    x[6]
 LO bounds    x[7]      0
 PL bounds    x[7]
 LO bounds    x[8]      0
 PL bounds    x[8]
 LO bounds    x[9]      0
 PL bounds    x[9]
 LO bounds    x[10]     0
 PL bounds    x[10]
ENDATA
